NAME : eil101.best.tour
TYPE : TOUR
DIMENSION : 101
TOUR_SECTION
1
69
52
27
28
101
53
58
40
2
57
15
43
42
87
97
95
92
37
98
100
91
44
14
38
86
16
61
85
93
59
99
96
94
13
6
89
18
82
83
60
5
84
17
45
8
46
36
47
48
7
19
49
64
11
62
88
31
70
10
63
90
32
30
51
20
66
65
71
35
9
81
33
79
78
34
29
24
54
55
25
4
56
39
67
23
75
41
22
74
72
73
21
26
12
80
68
3
77
76
50
EOF